pymatgen generated KPOINTS with grid density = 1277 / atom
0
Gamma
6 6 6
