Cr6 N3
1.0
4.784614 0.000000 0.000000
-2.392307 4.143597 0.000000
0.000000 0.000000 4.409684
Cr N
6 3
direct
0.326276 0.000000 0.253481 Cr
0.000000 0.326276 0.253481 Cr
0.673724 0.673724 0.253481 Cr
0.326276 0.326276 0.746519 Cr
0.673724 0.000000 0.746519 Cr
0.000000 0.673724 0.746519 Cr
0.000000 0.000000 0.000000 N
0.666667 0.333333 0.500000 N
0.333333 0.666667 0.500000 N
