Fe  C                                   
   1.00000000000000     
     5.7885000000000000    0.0000000000000000    0.0000000000000000
     0.0000000000000000    5.7885000000000000    0.0000000000000000
     0.0000000000000000    0.0000000000000000    5.7885000000000000
   Fe   C 
    16     1
Selective dynamics
Direct
  0.0000000000000000  0.0000000000000000  0.0000000000000000   T   T   T
  0.2500000000000000  0.2500000000000000  0.2500000000000000   T   T   T
  0.0000000000000000  0.0000000000000000  0.5000000000000000   T   T   T
  0.2500000000000000  0.2500000000000000  0.7500000000000000   T   T   T
  0.0000000000000000  0.5000000000000000  0.0000000000000000   T   T   T
  0.2500000000000000  0.7500000000000000  0.2500000000000000   T   T   T
  0.0000000000000000  0.5000000000000000  0.5000000000000000   T   T   T
  0.2500000000000000  0.7500000000000000  0.7500000000000000   T   T   T
  0.5000000000000000  0.0000000000000000  0.0000000000000000   F   F   F
  0.7500000000000000  0.2500000000000000  0.2500000000000000   T   T   T
  0.5000000000000000  0.0000000000000000  0.5000000000000000   F   F   F
  0.7500000000000000  0.2500000000000000  0.7500000000000000   T   T   T
  0.5000000000000000  0.5000000000000000  0.0000000000000000   F   F   F
  0.7500000000000000  0.7500000000000000  0.2500000000000000   T   T   T
  0.5000000000000000  0.5000000000000000  0.5000000000000000   F   F   F
  0.7500000000000000  0.7500000000000000  0.7500000000000000   T   T   T
  0.0000000000000000  0.2500000000000000  0.1250000000000000   F   F   F
 
  0.00000000E+00  0.00000000E+00  0.00000000E+00
  0.00000000E+00  0.00000000E+00  0.00000000E+00
  0.00000000E+00  0.00000000E+00  0.00000000E+00
  0.00000000E+00  0.00000000E+00  0.00000000E+00
  0.00000000E+00  0.00000000E+00  0.00000000E+00
  0.00000000E+00  0.00000000E+00  0.00000000E+00
  0.00000000E+00  0.00000000E+00  0.00000000E+00
  0.00000000E+00  0.00000000E+00  0.00000000E+00
  0.00000000E+00  0.00000000E+00  0.00000000E+00
  0.00000000E+00  0.00000000E+00  0.00000000E+00
  0.00000000E+00  0.00000000E+00  0.00000000E+00
  0.00000000E+00  0.00000000E+00  0.00000000E+00
  0.00000000E+00  0.00000000E+00  0.00000000E+00
  0.00000000E+00  0.00000000E+00  0.00000000E+00
  0.00000000E+00  0.00000000E+00  0.00000000E+00
  0.00000000E+00  0.00000000E+00  0.00000000E+00
  0.00000000E+00  0.00000000E+00  0.00000000E+00
