INCAR created by Atomic Simulation Environment
 ENCUT = 720.000000
 SIGMA = 0.100000
 POTIM = 0.050000
 ALGO = Fast
 ISPIN = 2
 ISMEAR = 1
 ISTART = 0
 ICHARG = 2
 NELM = 100
 LORBIT = 11
 LWAVE = .FALSE.
 LREAL = False
 MAGMOM = 16*5.0000 1*0.0000 
