Fe  C                                   
   1.00000000000000     
     5.7885000000000000    0.0000000000000000    0.0000000000000000
     0.0000000000000000    5.7885000000000000    0.0000000000000000
     0.0000000000000000    0.0000000000000000    5.7885000000000000
   Fe   C 
    16     1
Selective dynamics
Direct
 -0.0000000000000000  0.0063845075598838  0.0052016364797636   T   T   T
  0.2827661615981732  0.2488273605114898  0.2500000000000000   T   T   T
 -0.0000000000000000  0.0063845075598838  0.4947983635202363   T   T   T
  0.2554024610273721  0.2481624730969336  0.7500000000000000   T   T   T
 -0.0000000000000000  0.5059141294957880 -0.0341122537388191   T   T   T
  0.2447261900284393  0.7471214012682561  0.2500000000000000   T   T   T
 -0.0000000000000000  0.5059141294957880  0.5341122537388193   T   T   T
  0.2552764406088685  0.7615717030555467  0.7500000000000000   T   T   T
  0.5000000000000000  0.0000000000000000  0.0000000000000000   F   F   F
  0.7172338384018269  0.2488273605114898  0.2500000000000000   T   T   T
  0.5000000000000000  0.0000000000000000  0.5000000000000000   F   F   F
  0.7445975389726278  0.2481624730969336  0.7500000000000000   T   T   T
  0.5000000000000000  0.5000000000000000  0.0000000000000000   F   F   F
  0.7552738099715609  0.7471214012682561  0.2500000000000000   T   T   T
  0.5000000000000000  0.5000000000000000  0.5000000000000000   F   F   F
  0.7447235593911313  0.7615717030555467  0.7500000000000000   T   T   T
  0.0000000000000000  0.3750000000000000  0.2500000000000000   F   F   F
 
  0.00000000E+00  0.00000000E+00  0.00000000E+00
  0.00000000E+00  0.00000000E+00  0.00000000E+00
  0.00000000E+00  0.00000000E+00  0.00000000E+00
  0.00000000E+00  0.00000000E+00  0.00000000E+00
  0.00000000E+00  0.00000000E+00  0.00000000E+00
  0.00000000E+00  0.00000000E+00  0.00000000E+00
  0.00000000E+00  0.00000000E+00  0.00000000E+00
  0.00000000E+00  0.00000000E+00  0.00000000E+00
  0.00000000E+00  0.00000000E+00  0.00000000E+00
  0.00000000E+00  0.00000000E+00  0.00000000E+00
  0.00000000E+00  0.00000000E+00  0.00000000E+00
  0.00000000E+00  0.00000000E+00  0.00000000E+00
  0.00000000E+00  0.00000000E+00  0.00000000E+00
  0.00000000E+00  0.00000000E+00  0.00000000E+00
  0.00000000E+00  0.00000000E+00  0.00000000E+00
  0.00000000E+00  0.00000000E+00  0.00000000E+00
  0.00000000E+00  0.00000000E+00  0.00000000E+00
