Fe  C 
 1.0000000000000000
     5.7885000000000000    0.0000000000000000    0.0000000000000000
     0.0000000000000000    5.7885000000000000    0.0000000000000000
     0.0000000000000000    0.0000000000000000    5.7885000000000000
  16   1
Selective dynamics
Cartesian
  0.0000000000000000  0.0000000000000000  0.0000000000000000   T   T   T
  1.4471250000000000  1.4471250000000000  1.4471250000000000   T   T   T
  0.0000000000000000  0.0000000000000000  2.8942500000000000   T   T   T
  1.4471250000000000  1.4471250000000000  4.3413750000000002   T   T   T
  0.0000000000000000  2.8942500000000000  0.0000000000000000   T   T   T
  1.4471250000000000  4.3413750000000002  1.4471250000000000   T   T   T
  0.0000000000000000  2.8942500000000000  2.8942500000000000   T   T   T
  1.4471250000000000  4.3413750000000002  4.3413750000000002   T   T   T
  2.8942500000000000  0.0000000000000000  0.0000000000000000   F   F   F
  4.3413750000000002  1.4471250000000000  1.4471250000000000   T   T   T
  2.8942500000000000  0.0000000000000000  2.8942500000000000   F   F   F
  4.3413750000000002  1.4471250000000000  4.3413750000000002   T   T   T
  2.8942500000000000  2.8942500000000000  0.0000000000000000   F   F   F
  4.3413750000000002  4.3413750000000002  1.4471250000000000   T   T   T
  2.8942500000000000  2.8942500000000000  2.8942500000000000   F   F   F
  4.3413750000000002  4.3413750000000002  4.3413750000000002   T   T   T
  0.0000000000000000  2.1706875000000001  1.4471250000000000   F   F   F
