Cr92 C24
1.0
10.558080 0.000000 0.000000
0.000000 10.558080 0.000000
0.000000 0.000000 10.558080
Cr C
92 24
direct
0.118755 0.881245 0.618755 Cr
0.618755 0.118755 0.118755 Cr
0.881245 0.118755 0.381245 Cr
0.881245 0.881245 0.618755 Cr
0.381245 0.118755 0.118755 Cr
0.830178 0.000000 0.830178 Cr
0.000000 0.830178 0.830178 Cr
0.000000 0.169822 0.830178 Cr
0.830178 0.830178 0.000000 Cr
0.830178 0.169822 0.000000 Cr
0.169822 0.000000 0.830178 Cr
0.830178 0.000000 0.169822 Cr
0.000000 0.830178 0.169822 Cr
0.169822 0.169822 0.000000 Cr
0.169822 0.830178 0.000000 Cr
0.000000 0.169822 0.169822 Cr
0.169822 0.000000 0.169822 Cr
0.381245 0.881245 0.881245 Cr
0.118755 0.118755 0.381245 Cr
0.618755 0.881245 0.881245 Cr
0.250000 0.750000 0.750000 Cr
0.750000 0.750000 0.750000 Cr
0.000000 0.000000 0.000000 Cr
0.118755 0.381245 0.118755 Cr
0.618755 0.618755 0.618755 Cr
0.881245 0.618755 0.881245 Cr
0.881245 0.381245 0.118755 Cr
0.381245 0.618755 0.618755 Cr
0.830178 0.500000 0.330178 Cr
0.000000 0.330178 0.330178 Cr
0.000000 0.669822 0.330178 Cr
0.830178 0.330178 0.500000 Cr
0.830178 0.669822 0.500000 Cr
0.169822 0.500000 0.330178 Cr
0.830178 0.500000 0.669822 Cr
0.000000 0.330178 0.669822 Cr
0.169822 0.669822 0.500000 Cr
0.169822 0.330178 0.500000 Cr
0.000000 0.669822 0.669822 Cr
0.169822 0.500000 0.669822 Cr
0.381245 0.381245 0.381245 Cr
0.118755 0.618755 0.881245 Cr
0.618755 0.381245 0.381245 Cr
0.250000 0.250000 0.250000 Cr
0.750000 0.250000 0.250000 Cr
0.000000 0.500000 0.500000 Cr
0.618755 0.881245 0.118755 Cr
0.118755 0.118755 0.618755 Cr
0.381245 0.118755 0.881245 Cr
0.381245 0.881245 0.118755 Cr
0.881245 0.118755 0.618755 Cr
0.330178 0.000000 0.330178 Cr
0.500000 0.830178 0.330178 Cr
0.500000 0.169822 0.330178 Cr
0.330178 0.830178 0.500000 Cr
0.330178 0.169822 0.500000 Cr
0.669822 0.000000 0.330178 Cr
0.330178 0.000000 0.669822 Cr
0.500000 0.830178 0.669822 Cr
0.669822 0.169822 0.500000 Cr
0.669822 0.830178 0.500000 Cr
0.500000 0.169822 0.669822 Cr
0.669822 0.000000 0.669822 Cr
0.881245 0.881245 0.381245 Cr
0.618755 0.118755 0.881245 Cr
0.118755 0.881245 0.381245 Cr
0.750000 0.750000 0.250000 Cr
0.250000 0.750000 0.250000 Cr
0.500000 0.000000 0.500000 Cr
0.618755 0.381245 0.618755 Cr
0.118755 0.618755 0.118755 Cr
0.381245 0.618755 0.381245 Cr
0.381245 0.381245 0.618755 Cr
0.881245 0.618755 0.118755 Cr
0.330178 0.500000 0.830178 Cr
0.500000 0.330178 0.830178 Cr
0.500000 0.669822 0.830178 Cr
0.330178 0.330178 0.000000 Cr
0.330178 0.669822 0.000000 Cr
0.669822 0.500000 0.830178 Cr
0.330178 0.500000 0.169822 Cr
0.500000 0.330178 0.169822 Cr
0.669822 0.669822 0.000000 Cr
0.669822 0.330178 0.000000 Cr
0.500000 0.669822 0.169822 Cr
0.669822 0.500000 0.169822 Cr
0.881245 0.381245 0.881245 Cr
0.618755 0.618755 0.381245 Cr
0.118755 0.381245 0.881245 Cr
0.750000 0.250000 0.750000 Cr
0.250000 0.250000 0.750000 Cr
0.500000 0.500000 0.000000 Cr
0.276497 0.000000 0.000000 C
0.000000 0.000000 0.276497 C
0.000000 0.000000 0.723503 C
0.000000 0.776497 0.500000 C
0.000000 0.223503 0.500000 C
0.723503 0.000000 0.000000 C
0.276497 0.500000 0.500000 C
0.000000 0.500000 0.776497 C
0.000000 0.500000 0.223503 C
0.000000 0.276497 0.000000 C
0.000000 0.723503 0.000000 C
0.723503 0.500000 0.500000 C
0.776497 0.000000 0.500000 C
0.500000 0.000000 0.776497 C
0.500000 0.000000 0.223503 C
0.500000 0.776497 0.000000 C
0.500000 0.223503 0.000000 C
0.223503 0.000000 0.500000 C
0.776497 0.500000 0.000000 C
0.500000 0.500000 0.276497 C
0.500000 0.500000 0.723503 C
0.500000 0.276497 0.500000 C
0.500000 0.723503 0.500000 C
0.223503 0.500000 0.000000 C
