Fe  C                                   
   1.00000000000000     
     5.7885000000000000    0.0000000000000000    0.0000000000000000
     0.0000000000000000    5.7885000000000000    0.0000000000000000
     0.0000000000000000    0.0000000000000000    5.7885000000000000
   Fe   C 
    16     1
Selective dynamics
Direct
  0.0000000000000000  0.0051993313889619  0.0063823596928634   T   T   T
  0.2827688427668194  0.2500000000000000  0.2488273141903416   T   T   T
  0.0000000000000000 -0.0341124064357737  0.5059154948561591   T   T   T
  0.2447262176430273  0.2500000000000000  0.7471213657862394   T   T   T
  0.0000000000000000  0.4948006686110382  0.0063823596928634   T   T   T
  0.2554026070795571  0.7500000000000000  0.2481630219812921   T   T   T
  0.0000000000000000  0.5341124064357738  0.5059154948561591   T   T   T
  0.2552766432743955  0.7500000000000000  0.7615713597257561   T   T   T
  0.5000000000000000  0.0000000000000000  0.0000000000000000   F   F   F
  0.7172311572331808  0.2500000000000000  0.2488273141903416   T   T   T
  0.5000000000000000  0.0000000000000000  0.5000000000000000   F   F   F
  0.7552737823569727  0.2500000000000000  0.7471213657862394   T   T   T
  0.5000000000000000  0.5000000000000000  0.0000000000000000   F   F   F
  0.7445973929204427  0.7500000000000000  0.2481630219812921   T   T   T
  0.5000000000000000  0.5000000000000000  0.5000000000000000   F   F   F
  0.7447233567256045  0.7500000000000000  0.7615713597257561   T   T   T
  0.0000000000000000  0.2500000000000000  0.3750000000000000   F   F   F
 
  0.00000000E+00  0.00000000E+00  0.00000000E+00
  0.00000000E+00  0.00000000E+00  0.00000000E+00
  0.00000000E+00  0.00000000E+00  0.00000000E+00
  0.00000000E+00  0.00000000E+00  0.00000000E+00
  0.00000000E+00  0.00000000E+00  0.00000000E+00
  0.00000000E+00  0.00000000E+00  0.00000000E+00
  0.00000000E+00  0.00000000E+00  0.00000000E+00
  0.00000000E+00  0.00000000E+00  0.00000000E+00
  0.00000000E+00  0.00000000E+00  0.00000000E+00
  0.00000000E+00  0.00000000E+00  0.00000000E+00
  0.00000000E+00  0.00000000E+00  0.00000000E+00
  0.00000000E+00  0.00000000E+00  0.00000000E+00
  0.00000000E+00  0.00000000E+00  0.00000000E+00
  0.00000000E+00  0.00000000E+00  0.00000000E+00
  0.00000000E+00  0.00000000E+00  0.00000000E+00
  0.00000000E+00  0.00000000E+00  0.00000000E+00
  0.00000000E+00  0.00000000E+00  0.00000000E+00
